c
c Mapping from original variables to numbers:
c {'a1': 2, 'a2': 4, 'a3': 6, 'a4': 8, 'a5': 10, 'a6': 12, 'a7': 14, 'a8': 16, 'a9': 18, 'a10': 20, 'a11': 22, 'a12': 24, 'a13': 26, 'a14': 28, 'a15': 30, 'a16': 32, 'a17': 34, 'a18': 36, 'a19': 38, 'a20': 40, 'a21': 42, 'a22': 44, 'a23': 46, 'a24': 48, 'a25': 50, 'a26': 52, 'a27': 54, 'a28': 56, 'a29': 58, 'a30': 60, 'a31': 62, 'a32': 64, 'a33': 66, 'a34': 68, 'a35': 70, 'a36': 72, 'a37': 74, 'a38': 76, 'a39': 78, 'a40': 80, 'a41': 82, 'a42': 84, 'a43': 86, 'a44': 88, 'a45': 90, 'a46': 92, 'a47': 94, 'a48': 96, 'a49': 98, 'a50': 100, 'a51': 102, 'a52': 104, 'a53': 106, 'a54': 108, 'a55': 110, 'a56': 112, 'a57': 114, 'a58': 116, 'a59': 118, 'a60': 120, 'a61': 122, 'a62': 124, 'a63': 126, 'a64': 128, 'a65': 130, 'a66': 132, 'a67': 134, 'a68': 136, 'a69': 138, 'a70': 140, 'a71': 142, 'a72': 144, 'a73': 146, 'a74': 148, 'a75': 150, 'a76': 152, 'a77': 154, 'a78': 156, 'a79': 158, 'a80': 160, 'a81': 162, 'a82': 164, 'a83': 166, 'a84': 168, 'a85': 170, 'a86': 172, 'a87': 174, 'a88': 176, 'a89': 178, 'a90': 180, 'a91': 182, 'a92': 184, 'a93': 186, 'a94': 188, 'a95': 190, 'a96': 192, 'a97': 194, 'a98': 196, 'a99': 198, 'a100': 199}
c List of auxiliary variables:
c [1, 3, 5, 7, 9, 11, 13, 15, 17, 19, 21, 23, 25, 27, 29, 31, 33, 35, 37, 39, 41, 43, 45, 47, 49, 51, 53, 55, 57, 59, 61, 63, 65, 67, 69, 71, 73, 75, 77, 79, 81, 83, 85, 87, 89, 91, 93, 95, 97, 99, 101, 103, 105, 107, 109, 111, 113, 115, 117, 119, 121, 123, 125, 127, 129, 131, 133, 135, 137, 139, 141, 143, 145, 147, 149, 151, 153, 155, 157, 159, 161, 163, 165, 167, 169, 171, 173, 175, 177, 179, 181, 183, 185, 187, 189, 191, 193, 195, 197]
c Variable corresponding to root node: 1
c
p cnf 199 297
-1 2 3 0
-2 1 0
-3 1 0
-3 4 0
-3 5 0
-4 -5 3 0
-5 6 0
-5 7 0
-6 -7 5 0
-7 8 0
-7 9 0
-8 -9 7 0
-9 10 0
-9 11 0
-10 -11 9 0
-11 12 0
-11 13 0
-12 -13 11 0
-13 14 0
-13 15 0
-14 -15 13 0
-15 16 0
-15 17 0
-16 -17 15 0
-17 18 0
-17 19 0
-18 -19 17 0
-19 20 0
-19 21 0
-20 -21 19 0
-21 22 0
-21 23 0
-22 -23 21 0
-23 24 0
-23 25 0
-24 -25 23 0
-25 26 0
-25 27 0
-26 -27 25 0
-27 28 0
-27 29 0
-28 -29 27 0
-29 30 0
-29 31 0
-30 -31 29 0
-31 32 0
-31 33 0
-32 -33 31 0
-33 34 0
-33 35 0
-34 -35 33 0
-35 36 0
-35 37 0
-36 -37 35 0
-37 38 0
-37 39 0
-38 -39 37 0
-39 40 0
-39 41 0
-40 -41 39 0
-41 42 0
-41 43 0
-42 -43 41 0
-43 44 0
-43 45 0
-44 -45 43 0
-45 46 0
-45 47 0
-46 -47 45 0
-47 48 0
-47 49 0
-48 -49 47 0
-49 50 0
-49 51 0
-50 -51 49 0
-51 52 0
-51 53 0
-52 -53 51 0
-53 54 0
-53 55 0
-54 -55 53 0
-55 56 0
-55 57 0
-56 -57 55 0
-57 58 0
-57 59 0
-58 -59 57 0
-59 60 0
-59 61 0
-60 -61 59 0
-61 62 0
-61 63 0
-62 -63 61 0
-63 64 0
-63 65 0
-64 -65 63 0
-65 66 0
-65 67 0
-66 -67 65 0
-67 68 0
-67 69 0
-68 -69 67 0
-69 70 0
-69 71 0
-70 -71 69 0
-71 72 0
-71 73 0
-72 -73 71 0
-73 74 0
-73 75 0
-74 -75 73 0
-75 76 0
-75 77 0
-76 -77 75 0
-77 78 0
-77 79 0
-78 -79 77 0
-79 80 0
-79 81 0
-80 -81 79 0
-81 82 0
-81 83 0
-82 -83 81 0
-83 84 0
-83 85 0
-84 -85 83 0
-85 86 0
-85 87 0
-86 -87 85 0
-87 88 0
-87 89 0
-88 -89 87 0
-89 90 0
-89 91 0
-90 -91 89 0
-91 92 0
-91 93 0
-92 -93 91 0
-93 94 0
-93 95 0
-94 -95 93 0
-95 96 0
-95 97 0
-96 -97 95 0
-97 98 0
-97 99 0
-98 -99 97 0
-99 100 0
-99 101 0
-100 -101 99 0
-101 102 0
-101 103 0
-102 -103 101 0
-103 104 0
-103 105 0
-104 -105 103 0
-105 106 0
-105 107 0
-106 -107 105 0
-107 108 0
-107 109 0
-108 -109 107 0
-109 110 0
-109 111 0
-110 -111 109 0
-111 112 0
-111 113 0
-112 -113 111 0
-113 114 0
-113 115 0
-114 -115 113 0
-115 116 0
-115 117 0
-116 -117 115 0
-117 118 0
-117 119 0
-118 -119 117 0
-119 120 0
-119 121 0
-120 -121 119 0
-121 122 0
-121 123 0
-122 -123 121 0
-123 124 0
-123 125 0
-124 -125 123 0
-125 126 0
-125 127 0
-126 -127 125 0
-127 128 0
-127 129 0
-128 -129 127 0
-129 130 0
-129 131 0
-130 -131 129 0
-131 132 0
-131 133 0
-132 -133 131 0
-133 134 0
-133 135 0
-134 -135 133 0
-135 136 0
-135 137 0
-136 -137 135 0
-137 138 0
-137 139 0
-138 -139 137 0
-139 140 0
-139 141 0
-140 -141 139 0
-141 142 0
-141 143 0
-142 -143 141 0
-143 144 0
-143 145 0
-144 -145 143 0
-145 146 0
-145 147 0
-146 -147 145 0
-147 148 0
-147 149 0
-148 -149 147 0
-149 150 0
-149 151 0
-150 -151 149 0
-151 152 0
-151 153 0
-152 -153 151 0
-153 154 0
-153 155 0
-154 -155 153 0
-155 156 0
-155 157 0
-156 -157 155 0
-157 158 0
-157 159 0
-158 -159 157 0
-159 160 0
-159 161 0
-160 -161 159 0
-161 162 0
-161 163 0
-162 -163 161 0
-163 164 0
-163 165 0
-164 -165 163 0
-165 166 0
-165 167 0
-166 -167 165 0
-167 168 0
-167 169 0
-168 -169 167 0
-169 170 0
-169 171 0
-170 -171 169 0
-171 172 0
-171 173 0
-172 -173 171 0
-173 174 0
-173 175 0
-174 -175 173 0
-175 176 0
-175 177 0
-176 -177 175 0
-177 178 0
-177 179 0
-178 -179 177 0
-179 180 0
-179 181 0
-180 -181 179 0
-181 182 0
-181 183 0
-182 -183 181 0
-183 184 0
-183 185 0
-184 -185 183 0
-185 186 0
-185 187 0
-186 -187 185 0
-187 188 0
-187 189 0
-188 -189 187 0
-189 190 0
-189 191 0
-190 -191 189 0
-191 192 0
-191 193 0
-192 -193 191 0
-193 194 0
-193 195 0
-194 -195 193 0
-195 196 0
-195 197 0
-196 -197 195 0
-197 198 0
-197 199 0
-198 -199 197 0
